(declare-const in20 Int)
(declare-const in22 Int)
(declare-const in21 Int)
(declare-const in24 Int)
(declare-const in23 Int)
(declare-const in26 Int)
(declare-const in25 Int)
(declare-const in28 Int)
(declare-const in27 Int)
(declare-const in29 Int)
(declare-const in0 Int)
(declare-const in2 Int)
(declare-const in1 Int)
(declare-const in4 Int)
(declare-const in3 Int)
(declare-const in6 Int)
(declare-const in5 Int)
(declare-const in8 Int)
(declare-const in7 Int)
(declare-const in11 Int)
(declare-const in10 Int)
(declare-const in9 Int)
(declare-const in13 Int)
(declare-const in12 Int)
(declare-const in15 Int)
(declare-const in14 Int)
(declare-const in17 Int)
(declare-const in16 Int)
(declare-const in19 Int)
(declare-const in18 Int)

(assert (and (and (and (and (and (and (and (and (and (and (and (and (and (and (and (and (and (and (and (and (and (and (and (and (and (and (and (and (and (and (and (and (and (and (and (and (and (and (and (and (and (and (and (and (and (and (and (and (and (and (and (and (and (and (and (and (and (and (and (and (and (and (and (and (and (and (and (and (and (and (and (and (and (and (and (and  ( <=  in0 in1)  ( <=  in2 in3))  ( <=  in0 in2))  ( <=  in1 in2))  ( <=  in4 in5))  ( <=  in6 in7))  ( <=  in4 in6))  ( <=  in5 in6))  ( <=  in0 in4))  ( <=  in1 in4))  ( <=  in2 in4))  ( <=  in3 in4))  ( <=  in8 in9))  ( <=  in10 in11))  ( <=  in8 in10))  ( <=  in9 in10))  ( <=  in12 in13))  ( <=  in12 in14))  ( <=  in13 in14))  ( <=  in8 in12))  ( <=  in9 in12))  ( <=  in10 in12))  ( <=  in11 in12))  ( <=  in0 in8))  ( <=  in1 in8))  ( <=  in2 in8))  ( <=  in3 in8))  ( <=  in4 in8))  ( <=  in5 in8))  ( <=  in6 in8))  ( <=  in7 in8))  ( <=  in15 in16))  ( <=  in17 in18))  ( <=  in15 in17))  ( <=  in16 in17))  ( <=  in19 in20))  ( <=  in21 in22))  ( <=  in19 in21))  ( <=  in20 in21))  ( <=  in15 in19))  ( <=  in16 in19))  ( <=  in17 in19))  ( <=  in18 in19))  ( <=  in23 in24))  ( <=  in25 in26))  ( <=  in23 in25))  ( <=  in24 in25))  ( <=  in27 in28))  ( <=  in27 in29))  ( <=  in28 in29))  ( <=  in23 in27))  ( <=  in24 in27))  ( <=  in25 in27))  ( <=  in26 in27))  ( <=  in15 in23))  ( <=  in16 in23))  ( <=  in17 in23))  ( <=  in18 in23))  ( <=  in19 in23))  ( <=  in20 in23))  ( <=  in21 in23))  ( <=  in22 in23))  ( <=  in0 in15))  ( <=  in1 in15))  ( <=  in2 in15))  ( <=  in3 in15))  ( <=  in4 in15))  ( <=  in5 in15))  ( <=  in6 in15))  ( <=  in7 in15))  ( <=  in8 in15))  ( <=  in9 in15))  ( <=  in10 in15))  ( <=  in11 in15))  ( <=  in12 in15))  ( <=  in13 in15))  ( <=  in14 in15)))

(check-sat)
(get-model)